sat
(model
; cardinality of BoundSet is 1
(declare-sort BoundSet 0)
; rep: @uc_BoundSet_0
; cardinality of UnboundSet is 1
(declare-sort UnboundSet 0)
; rep: @uc_UnboundSet_0
(define-fun c () UnboundSet @uc_UnboundSet_0)
(define-fun IsRubbing ((BOUND_VARIABLE_332 BoundSet)) Bool true)
(define-fun IsInYellowTie ((BOUND_VARIABLE_337 UnboundSet)) Bool false)
)
